CMD:
./solvers/bin/cadical --plain --no-reduce -t 1600 ./data/cnfs//picorv32-check-p19/picorv32-check-p19.56.cnf

c --- [ banner ] -------------------------------------------------------------
c 
c CaDiCaL SAT Solver
c Copyright (c) 2016-2024
c A. Biere, M. Fleury, N. Froleyks, K. Fazekas, F. Pollitt, T. Faller
c JKU Linz, University of Freiburg, TU Wien
c 
c Version 2.1.3 5296d3d2a9bf48c154ab2acb5e44625776d821bf
c g++ (Gentoo 12.3.1_p20230526 p2) 12.3.1 20230526 -Wall -Wextra -O3 -DNDEBUG
c Sat Aug 9 07:26:21 PDT 2025 Linux cedar2.int.cedar.computecanada.ca 5.14.0-362.24.2.el9_3.x86_64 x86_64
c 
c --- [ limit ] --------------------------------------------------------------
c 
c setting time limit to 1600 seconds real time (due to '-t 1600')
c 
c --- [ parsing input ] ------------------------------------------------------
c 
c reading DIMACS file from './data/cnfs//picorv32-check-p19/picorv32-check-p19.56.cnf'
c opening file to read './data/cnfs//picorv32-check-p19/picorv32-check-p19.56.cnf'
c found 'p cnf 1094181 3227586' header
c parsed 3227586 clauses in 0.53 seconds process time
c 
c --- [ options ] ------------------------------------------------------------
c 
c   --compact=false                (different from default 'true')
c   --decompose=false              (different from default 'true')
c   --deduplicate=false            (different from default 'true')
c   --elim=false                   (different from default 'true')
c   --probe=false                  (different from default 'true')
c   --reduce=false                 (different from default 'true')
c   --subsume=false                (different from default 'true')
c   --ternary=false                (different from default 'true')
c   --transred=false               (different from default 'true')
c   --vivify=false                 (different from default 'true')
c 
c --- [ solving ] ------------------------------------------------------------
c 
c time measured in process time since initialization
c 
c  seconds   reductions  redundant   irredundant
c          MB    restarts       trail         variables
c           level   conflicts       glue            remaining
c 
c *  0.53 507  0 0   0    0    0  0% 0 3183802 1070122 98%
c {  0.77 520  0 0   0    0    0  0% 0 3183802 1070122 98%
c i  0.95 524 49 0   4   60   52 13% 3 3183802 1070097 98%
c i  1.00 524 44 0  10  126  102 11% 3 3183802 1070092 98%
c i  1.00 524 42 0  10  138  109 11% 3 3183802 1070091 98%
c i  1.02 524 36 0  10  193  151 10% 3 3183802 1070090 98%
c i  1.03 524 40 0  10  219  172 10% 3 3183802 1070089 98%
c i  1.03 524 42 0  10  224  175 10% 3 3183802 1070088 98%
c i  1.03 524 45 0  10  229  178 10% 3 3183802 1070087 98%
c i  1.03 524 47 0  10  234  181 10% 3 3183802 1070086 98%
c i  1.03 524 50 0  10  239  184 10% 3 3183802 1070085 98%
c i  1.03 524 52 0  10  244  187 10% 3 3183802 1070084 98%
c i  1.03 524 54 0  10  249  190 10% 3 3183802 1070083 98%
c i  1.03 524 56 0  10  254  193 10% 3 3183802 1070082 98%
c i  1.03 524 58 0  10  259  196 11% 3 3183802 1070081 98%
c i  1.03 524 59 0  10  264  199 11% 3 3183802 1070080 98%
c i  1.03 525 61 0  10  269  202 11% 3 3183802 1070079 98%
c i  1.03 525 62 0  10  274  205 11% 3 3183802 1070078 98%
c i  1.03 525 63 0  10  279  208 11% 3 3183802 1070077 98%
c i  1.03 525 64 0  10  284  211 11% 3 3183802 1070076 98%
c 
c  seconds   reductions  redundant   irredundant
c          MB    restarts       trail         variables
c           level   conflicts       glue            remaining
c 
c i  1.03 525 65 0  10  289  214 11% 3 3183802 1070075 98%
c i  1.05 525 69 0  11  451  374  9% 3 3183802 1070074 98%
c i  1.06 525 69 0  14  469  386  9% 3 3183802 1070072 98%
c i  1.08 525 64 0  18  516  425  9% 3 3183802 1070071 98%
c i  1.08 525 61 0  18  552  456  9% 3 3183802 1070070 98%
c i  1.41 527 52 0  29  957  814 10% 2 3183802 1070069 98%
c }  1.42 527 53 0  29 1003  855 10% 2 3183802 1070069 98%
c [  1.42 527  0 0  29 1003  855  0% 0 3183802 1070069 98%
c O  1.64 527 15682 0  29 1004  856 92% 2 3183802 1070069 98%
c i  1.68 527 15613 0  29 1072  921 91% 2 3183802 1059796 97%
c i  1.68 527 15613 0  29 1085  923 90% 2 3183802 1059763 97%
c i  1.69 527 15245 0  29 1161  968 88% 2 3183802 1059672 97%
c i  1.69 527 15242 0  29 1162  968 88% 2 3183802 1059605 97%
c i  1.70 527 15232 0  29 1166  970 88% 2 3183802 1058582 97%
c i  1.73 527 15119 0  29 1228 1024 87% 3 3183802 1057302 97%
c i  1.79 527 14992 0  29 1284 1072 86% 3 3183802 1054901 96%
c i  1.84 527 14761 0  29 1356 1129 85% 3 3183802 1054900 96%
c i  1.96 527 14591 0  29 1442 1200 84% 3 3183802 1054899 96%
c i  2.03 527 14185 0  29 1606 1338 82% 3 3183802 1051247 96%
c i  2.06 527 14139 0  29 1628 1354 82% 3 3183802 1051123 96%
c 
c  seconds      reductions  redundant   irredundant
c          MB       restarts       trail         variables
c             level    conflicts       glue            remaining
c 
c i  2.07 527 14076 0  29 1648 1368 82% 3 3183802 1048395 96%
c i  2.07 527 14038 0  29 1663 1380 81% 3 3183802 1038511 95%
c i  2.07 527 13995 0  29 1678 1391 81% 3 3183802 1038424 95%
c i  2.09 527 13982 0  29 1682 1393 81% 3 3183802 1031480 94%
c i  2.12 527 13769 0  29 1744 1448 80% 3 3183802 1026796 94%
c i  2.12 527 13761 0  29 1746 1448 80% 3 3183802 1019770 93%
c i  2.13 527 13711 0  29 1757 1451 79% 3 3183802 1018866 93%
c i  2.16 527 13624 0  29 1774 1464 79% 3 3183802 1017389 93%
c i  2.17 527 13555 0  29 1789 1474 79% 3 3183802 1012745 93%
c i  2.19 527 13523 0  29 1798 1479 78% 3 3183802 1010404 92%
c i  2.19 527 13485 0  29 1804 1484 78% 3 3183802 1010403 92%
c i  2.22 527 13295 0  29 1838 1515 77% 3 3183802 1005721 92%
c i  2.24 527 13205 0  29 1855 1528 77% 3 3183802 1004613 92%
c i  2.25 527 13115 0  29 1874 1540 76% 3 3183802 998698 91%
c i  2.26 527 13101 0  29 1877 1541 76% 3 3183802 996357 91%
c i  2.27 527 13072 0  29 1884 1542 76% 3 3183802 991675 91%
c i  2.52 527 12259 0  29 1999 1644 72% 3 3183802 990460 91%
c i  2.64 527 11550 0  30 2106 1743 68% 3 3183802 987230 90%
c i  2.65 527 11517 0  30 2109 1745 68% 3 3183802 983596 90%
c i  2.65 527 11440 0  30 2116 1748 68% 3 3183802 981431 90%
c 
c  seconds      reductions  redundant   irredundant
c          MB       restarts       trail        variables
c             level    conflicts       glue           remaining
c 
c i  2.66 527 11320 0  30 2127 1755 67% 3 3183802 980146 90%
c i  2.66 527 11299 0  30 2130 1756 67% 3 3183802 975334 89%
c i  2.67 527 11130 0  30 2146 1769 66% 3 3183802 975302 89%
c i  2.73 527 10088 0  30 2258 1836 62% 3 3183802 970992 89%
c i  2.88 527 9309 0  30 2365 1928 59% 3 3183802 969719 89%
c i  2.89 528 8980 0  30 2412 1973 58% 3 3183802 966750 88%
c i  2.89 528 8946 0  30 2417 1976 58% 3 3183802 945710 86%
c ]  2.90 528 8933 0  30 2420 1977 57% 3 3183802 945691 86%
c 0  2.90 528 8933 0  30 2420 1977 57% 3 3183802 945691 86%
c 
c --- [ result ] -------------------------------------------------------------
c 
s UNSATISFIABLE
c 
c --- [ run-time profiling ] -------------------------------------------------
c 
c process time taken by individual solving procedures
c (percentage relative to process time for solving)
c 
c         2.37  100.00% search
c         1.47   62.28% stable
c         0.65   27.62% unstable
c         0.53   22.27% parse
c         0.24   10.10% lucky
c         0.00    0.00% simplify
c   =================================
c         2.37   81.77% solve
c 
c last line shows process time for solving
c (percentage relative to total process time)
c 
c --- [ statistics ] ---------------------------------------------------------
c 
c chronological:              1261        52.11 %  of conflicts
c conflicts:                  2420      1022.05    per second
c decisions:                 27357     11553.76    per second
c fixed:                    148292        13.55 %  of all variables
c learned:                    2255        93.18 %  per conflict
c learned_lits:              30296       100.00 %  learned literals
c minimized:                     0         0.00 %  learned literals
c shrunken:                   7095        23.42 %  learned literals
c minishrunken:               4264        14.07 %  learned literals
c otfs:                         46         1.90 %  of conflict
c propagations:           24950661        10.54 M  per second
c rephased:                      1      2420.00    interval
c restarts:                     30        80.67    interval
c stabilizing:                   1        58.51 %  of conflicts
c subsumed:                    213         0.01 %  of all clauses
c strengthened:                 45         0.00 %  of all clauses
c 
c seconds are measured in process time for solving
c 
c --- [ resources ] ----------------------------------------------------------
c 
c total process time since initialization:         2.90    seconds
c total real time since initialization:            2.91    seconds
c maximum resident set size of process:          525.30    MB
c 
c --- [ shutting down ] ------------------------------------------------------
c 
c exit 20
